79 80
92 36 1
66 34 1
83 1 1
71 7 1
77 44 1
96 33 1
72 15 1
71 11 1
70 14 1
100 43 1
70 41 1
79 28 1
71 46 1
77 15 1
14 85 2
95 6 1
22 93 1
97 49 1
88 28 1
84 46 1
98 45 1
36 97 1
75 39 1
82 47 1
89 12 1
88 51 1
70 12 1
87 10 1
32 40 1
51 71 1
60 96 1
66 35 1
95 31 1
28 66 1
84 43 1
82 71 1
14 88 1
76 44 1
68 50 1
83 20 1
47 46 1
75 48 1
95 20 1
86 29 1
42 80 1
82 14 1
96 1 1
98 1 1
99 8 1
98 41 1
7 43 1
82 34 1
17 70 1
86 30 1
87 48 1
97 66 1
83 30 1
77 14 1
64 85 1
39 39 1
88 43 1
64 91 1
78 52 1
95 22 1
66 17 1
82 31 1
3 88 1
70 17 1
88 2 1
94 81 1
92 24 1
89 24 1
82 50 1
84 44 1
91 28 1
81 43 1
85 8 1
71 68 1
98 42 1
100 100 
100 100 
100 100 
100 100 
100 100 
100 100 
100 100 
100 100 
100 100 
100 100 
100 100 
100 100 
100 100 
100 100 
100 100 
100 100 
100 100 
100 100 
100 100 
100 100 
100 100 
100 100 
100 100 
100 100 
100 100 
100 100 
100 100 
100 100 
100 100 
100 100 
100 100 
100 100 
100 100 
100 100 
100 100 
100 100 
100 100 
100 100 
100 100 
100 100 
100 100 
100 100 
100 100 
100 100 
100 100 
100 100 
100 100 
100 100 
100 100 
100 100 
100 100 
100 100 
100 100 
100 100 
100 100 
100 100 
100 100 
100 100 
100 100 
100 100 
100 100 
100 100 
100 100 
100 100 
100 100 
100 100 
100 100 
100 100 
100 100 
100 100 
100 100 
100 100 
100 100 
100 100 
100 100 
100 100 
100 100 
100 100 
100 100 
100 100 
